%Chk=grad.chk
%Nproc=1
%Mem=1Gb
# B3LYP/def2SVP Force td(nstates=2, root=1)
NoSymm 

s1 gradient

0 1
@geom



